%%% static parameters %%%
timespan = 1;
Fact = [4];
Distr1 = [15];
Distr2 = [20];
Clients_N = [300];
Demand_W = [15];
Lt0 = [4];
Lt1 = [4];
SS_ = [0.85];
DS_D = [8];
K = [200];
MA = [500];
%%% dynamic parameters %%%
lost_ratio_sales_ret_th = 0.09705242642159927;
lost_ratio_sales_ret_w = 17;
lost_ratio_sales_dis_th = 0.04965188131293097;
lost_ratio_sales_dis_w = 40;
lost_ratio_sales_fac_th = 0.1108403574629088;
lost_ratio_sales_fac_w = 28;
stock_customer_MA_mean_relative_th = 0.9118159923434529;
stock_customer_MA_mean_relative_w = 34;
stock_distributor_MA_mean_relative_th = 0.7230904093747847;
stock_distributor_MA_mean_relative_w = 86;
stock_retailer_MA_mean_relative_th = 0.09761871771077202;
stock_retailer_MA_mean_relative_w = 59;
stock_factory_MA_mean_relative_th = 0.3537757315444976;
stock_factory_MA_mean_relative_w = 79;
